experiments/sat_smt/run/sat-r/results/unused_1.res
solved=true
solvingTime=2.027747631072998046875
nActions=6