experiments/sat_smt/run/sat-r/results/unused_1.out
Timesteps: 1
s UNSATISFIABLE
real 0.13
user 0.01
sys 0.00
Timesteps: 2
s UNSATISFIABLE
real 0.17
user 0.03
sys 0.00
Timesteps: 3
s UNSATISFIABLE
real 0.20
user 0.06
sys 0.01
Timesteps: 4
s UNSATISFIABLE
real 0.22
user 0.14
sys 0.01
Timesteps: 5
s UNSATISFIABLE
real 0.51
user 0.40
sys 0.00
Timesteps: 6
s SATISFIABLE
real 0.59
user 0.48
sys 0.00
